ITEM = 1..60;
capacity1 = 536;
capacity2 = 536;
capacity3 = 536;
profits = [20, 21, 64, 21, 57, 30, 86, 31, 66, 79, 66, 49, 23, 49, 76, 28, 78, 20, 33, 21, 23, 98, 46, 29, 35, 25, 51, 88, 26, 24, 20, 21, 23, 71, 33, 60, 76, 21, 71, 43, 24, 51, 24, 91, 30, 65, 29, 94, 27, 36, 31, 71, 20, 20, 22, 24, 21, 71, 39, 20];
weights = [11, 52, 54, 14, 85, 67, 99, 44, 67, 81, 68, 69, 22, 65, 67, 28, 75, 10, 24, 11, 19, 98, 87, 89, 100, 17, 55, 96, 66, 18, 10, 41, 16, 96, 75, 64, 69, 12, 70, 81, 72, 89, 23, 88, 62, 66, 67, 95, 60, 61, 30, 79, 10, 10, 13, 22, 35, 71, 59, 11];
